NAME : X-n548-k50
COMMENT : "Generated by Uchoa, Pecin, Pessoa, Poggi, Subramanian, and Vidal (2013)"
TYPE : CVRP
DIMENSION : 548
EDGE_WEIGHT_TYPE : EUC_2D
CAPACITY : 11
NODE_COORD_SECTION
1 0 0
2 221 542
3 320 456
4 576 827
5 679 994
6 371 461
7 961 844
8 986 379
9 175 540
10 126 517
11 329 626
12 477 890
13 191 356
14 584 917
15 308 653
16 0 7
17 273 302
18 672 381
19 235 415
20 583 149
21 672 124
22 644 646
23 400 544
24 832 999
25 842 964
26 582 965
27 544 311
28 429 2
29 939 849
30 898 605
31 363 130
32 639 874
33 323 201
34 829 350
35 7 53
36 801 92
37 57 330
38 943 0
39 579 275
40 833 402
41 408 940
42 635 871
43 631 630
44 733 313
45 344 619
46 628 291
47 674 92
48 74 602
49 38 354
50 473 107
51 668 279
52 510 811
53 366 16
54 49 182
55 528 946
56 271 745
57 405 872
58 65 893
59 622 488
60 668 978
61 939 73
62 556 632
63 270 446
64 586 348
65 951 167
66 385 308
67 247 997
68 992 460
69 128 590
70 746 847
71 279 459
72 428 183
73 364 167
74 656 687
75 547 792
76 517 152
77 252 618
78 464 284
79 184 96
80 457 269
81 590 47
82 348 609
83 777 112
84 528 198
85 877 457
86 812 650
87 864 723
88 584 875
89 817 233
90 186 909
91 439 447
92 560 994
93 818 658
94 134 903
95 447 951
96 969 519
97 488 401
98 142 666
99 287 534
100 399 181
101 141 22
102 29 248
103 313 643
104 20 974
105 294 475
106 439 214
107 327 361
108 79 657
109 165 601
110 345 144
111 90 914
112 400 256
113 177 633
114 549 135
115 812 166
116 887 565
117 455 695
118 180 298
119 658 126
120 18 638
121 327 299
122 195 261
123 245 439
124 355 299
125 827 854
126 881 666
127 144 893
128 34 637
129 187 150
130 350 673
131 380 917
132 271 505
133 347 879
134 45 456
135 930 78
136 860 22
137 448 112
138 236 704
139 222 587
140 670 76
141 333 821
142 521 123
143 642 795
144 152 816
145 50 360
146 325 936
147 24 690
148 836 158
149 351 981
150 405 377
151 159 405
152 825 285
153 187 320
154 342 200
155 290 713
156 304 144
157 216 909
158 46 173
159 613 524
160 35 950
161 298 667
162 257 579
163 775 393
164 860 681
165 996 407
166 42 719
167 379 14
168 195 581
169 75 328
170 295 405
171 481 721
172 539 661
173 6 525
174 239 471
175 88 989
176 965 196
177 460 479
178 927 260
179 663 933
180 626 229
181 814 564
182 737 136
183 620 811
184 253 65
185 645 544
186 877 977
187 825 518
188 656 780
189 235 74
190 881 673
191 101 93
192 221 710
193 69 200
194 115 635
195 721 215
196 414 959
197 336 858
198 270 287
199 912 701
200 278 898
201 426 373
202 867 569
203 354 11
204 937 660
205 434 965
206 753 436
207 681 746
208 86 648
209 656 239
210 604 359
211 979 146
212 507 27
213 94 695
214 424 827
215 287 592
216 554 230
217 952 222
218 48 840
219 99 106
220 661 456
221 133 601
222 635 416
223 860 852
224 842 165
225 752 0
226 173 90
227 469 632
228 184 590
229 619 482
230 981 411
231 778 389
232 359 222
233 751 498
234 201 444
235 91 710
236 111 324
237 867 389
238 309 269
239 669 317
240 768 421
241 889 891
242 605 483
243 221 579
244 729 804
245 442 624
246 719 697
247 413 1000
248 977 29
249 356 605
250 107 39
251 362 727
252 570 421
253 162 737
254 557 652
255 139 48
256 145 568
257 596 316
258 681 194
259 268 893
260 420 824
261 94 529
262 422 341
263 226 328
264 687 807
265 299 951
266 549 281
267 944 64
268 316 904
269 554 49
270 160 221
271 302 952
272 258 765
273 406 684
274 182 881
275 641 481
276 541 807
277 107 602
278 870 999
279 247 282
280 771 712
281 109 942
282 305 827
283 865 629
284 632 928
285 571 734
286 899 632
287 189 934
288 385 166
289 851 399
290 890 198
291 370 248
292 372 910
293 11 248
294 845 326
295 508 769
296 511 900
297 320 984
298 158 330
299 159 327
300 798 648
301 746 195
302 555 541
303 832 900
304 809 931
305 460 869
306 585 804
307 487 102
308 194 288
309 340 877
310 127 981
311 39 692
312 187 528
313 462 482
314 890 450
315 857 64
316 96 223
317 610 842
318 910 604
319 260 757
320 809 211
321 767 499
322 48 352
323 23 950
324 289 98
325 622 891
326 499 618
327 873 960
328 82 752
329 65 845
330 281 842
331 990 747
332 809 808
333 693 76
334 744 478
335 506 411
336 668 167
337 301 696
338 61 500
339 9 695
340 939 496
341 390 699
342 741 894
343 39 477
344 476 728
345 663 477
346 112 160
347 588 281
348 215 559
349 528 309
350 839 820
351 601 769
352 668 953
353 594 865
354 407 905
355 478 244
356 423 639
357 174 707
358 635 465
359 570 151
360 651 612
361 785 786
362 166 64
363 684 574
364 598 632
365 645 944
366 976 284
367 576 737
368 87 725
369 177 414
370 865 221
371 459 506
372 23 683
373 507 320
374 961 987
375 497 889
376 888 561
377 963 175
378 223 208
379 308 530
380 237 184
381 576 387
382 937 529
383 463 219
384 210 641
385 582 748
386 215 107
387 985 385
388 22 783
389 920 945
390 502 117
391 851 594
392 467 732
393 728 54
394 64 249
395 492 57
396 415 372
397 852 45
398 503 209
399 292 125
400 316 855
401 340 273
402 242 217
403 85 788
404 700 96
405 942 989
406 37 511
407 663 175
408 670 279
409 611 829
410 471 843
411 268 61
412 412 350
413 4 325
414 454 981
415 94 359
416 688 524
417 982 397
418 725 208
419 793 620
420 337 779
421 106 856
422 350 826
423 965 538
424 780 360
425 144 904
426 225 646
427 666 449
428 510 276
429 564 632
430 573 501
431 903 827
432 605 806
433 38 525
434 445 738
435 138 788
436 216 988
437 944 955
438 220 716
439 788 589
440 75 130
441 858 686
442 107 314
443 717 125
444 991 306
445 62 373
446 641 426
447 747 436
448 350 855
449 42 62
450 184 460
451 153 199
452 618 878
453 986 690
454 430 839
455 161 233
456 840 747
457 284 582
458 899 505
459 453 998
460 134 596
461 30 955
462 437 412
463 660 92
464 203 828
465 524 418
466 723 31
467 869 759
468 824 606
469 764 469
470 760 852
471 119 378
472 352 365
473 954 998
474 381 873
475 905 972
476 222 302
477 0 783
478 746 114
479 670 702
480 447 881
481 14 996
482 844 110
483 315 373
484 115 329
485 808 697
486 992 409
487 692 929
488 897 142
489 397 338
490 334 75
491 104 954
492 537 581
493 502 262
494 346 190
495 812 171
496 361 170
497 44 202
498 326 351
499 525 950
500 773 202
501 650 781
502 906 167
503 910 793
504 752 234
505 147 12
506 542 768
507 82 850
508 358 588
509 68 802
510 19 296
511 114 406
512 228 854
513 147 444
514 954 410
515 529 392
516 77 383
517 822 126
518 284 784
519 804 876
520 200 797
521 735 425
522 784 608
523 870 566
524 968 481
525 228 806
526 548 87
527 609 314
528 328 85
529 852 128
530 505 944
531 358 609
532 311 26
533 855 140
534 909 915
535 407 84
536 523 987
537 690 982
538 841 250
539 499 9
540 646 414
541 516 682
542 713 221
543 328 800
544 944 22
545 691 660
546 763 609
547 44 506
548 756 289
PICKUP_AND_DELIVERY_SECTION
1 0 0 1000000000 0 0 0
2 0 0 1000000000 0 0 1
3 0 0 1000000000 0 0 1
4 0 0 1000000000 0 0 1
5 0 0 1000000000 0 1 0
6 0 0 1000000000 0 0 1
7 0 0 1000000000 0 0 1
8 0 0 1000000000 0 0 1
9 0 0 1000000000 0 1 0
10 0 0 1000000000 0 0 1
11 0 0 1000000000 0 0 1
12 0 0 1000000000 0 0 1
13 0 0 1000000000 0 1 0
14 0 0 1000000000 0 0 1
15 0 0 1000000000 0 0 1
16 0 0 1000000000 0 0 1
17 0 0 1000000000 0 1 0
18 0 0 1000000000 0 0 1
19 0 0 1000000000 0 0 1
20 0 0 1000000000 0 0 1
21 0 0 1000000000 0 1 0
22 0 0 1000000000 0 0 1
23 0 0 1000000000 0 0 1
24 0 0 1000000000 0 0 1
25 0 0 1000000000 0 1 0
26 0 0 1000000000 0 0 1
27 0 0 1000000000 0 0 1
28 0 0 1000000000 0 0 1
29 0 0 1000000000 0 1 0
30 0 0 1000000000 0 0 1
31 0 0 1000000000 0 0 1
32 0 0 1000000000 0 0 1
33 0 0 1000000000 0 1 0
34 0 0 1000000000 0 0 1
35 0 0 1000000000 0 0 1
36 0 0 1000000000 0 0 1
37 0 0 1000000000 0 1 0
38 0 0 1000000000 0 0 1
39 0 0 1000000000 0 0 1
40 0 0 1000000000 0 0 1
41 0 0 1000000000 0 1 0
42 0 0 1000000000 0 0 1
43 0 0 1000000000 0 0 1
44 0 0 1000000000 0 0 1
45 0 0 1000000000 0 1 0
46 0 0 1000000000 0 0 1
47 0 0 1000000000 0 0 1
48 0 0 1000000000 0 0 1
49 0 0 1000000000 0 1 0
50 0 0 1000000000 0 0 1
51 0 0 1000000000 0 0 1
52 0 0 1000000000 0 0 1
53 0 0 1000000000 0 1 0
54 0 0 1000000000 0 0 1
55 0 0 1000000000 0 0 1
56 0 0 1000000000 0 0 1
57 0 0 1000000000 0 1 0
58 0 0 1000000000 0 0 1
59 0 0 1000000000 0 0 1
60 0 0 1000000000 0 0 1
61 0 0 1000000000 0 1 0
62 0 0 1000000000 0 0 1
63 0 0 1000000000 0 0 1
64 0 0 1000000000 0 0 1
65 0 0 1000000000 0 1 0
66 0 0 1000000000 0 0 1
67 0 0 1000000000 0 0 1
68 0 0 1000000000 0 0 1
69 0 0 1000000000 0 1 0
70 0 0 1000000000 0 0 1
71 0 0 1000000000 0 0 1
72 0 0 1000000000 0 0 1
73 0 0 1000000000 0 1 0
74 0 0 1000000000 0 0 1
75 0 0 1000000000 0 0 1
76 0 0 1000000000 0 0 1
77 0 0 1000000000 0 1 0
78 0 0 1000000000 0 0 1
79 0 0 1000000000 0 0 1
80 0 0 1000000000 0 0 1
81 0 0 1000000000 0 1 0
82 0 0 1000000000 0 0 1
83 0 0 1000000000 0 0 1
84 0 0 1000000000 0 0 1
85 0 0 1000000000 0 1 0
86 0 0 1000000000 0 0 1
87 0 0 1000000000 0 0 1
88 0 0 1000000000 0 0 1
89 0 0 1000000000 0 1 0
90 0 0 1000000000 0 0 1
91 0 0 1000000000 0 0 1
92 0 0 1000000000 0 0 1
93 0 0 1000000000 0 1 0
94 0 0 1000000000 0 0 1
95 0 0 1000000000 0 0 1
96 0 0 1000000000 0 0 1
97 0 0 1000000000 0 1 0
98 0 0 1000000000 0 0 1
99 0 0 1000000000 0 0 1
100 0 0 1000000000 0 0 1
101 0 0 1000000000 0 1 0
102 0 0 1000000000 0 0 1
103 0 0 1000000000 0 0 1
104 0 0 1000000000 0 0 1
105 0 0 1000000000 0 1 0
106 0 0 1000000000 0 0 1
107 0 0 1000000000 0 0 1
108 0 0 1000000000 0 0 1
109 0 0 1000000000 0 1 0
110 0 0 1000000000 0 0 1
111 0 0 1000000000 0 0 1
112 0 0 1000000000 0 0 1
113 0 0 1000000000 0 1 0
114 0 0 1000000000 0 0 1
115 0 0 1000000000 0 0 1
116 0 0 1000000000 0 0 1
117 0 0 1000000000 0 1 0
118 0 0 1000000000 0 0 1
119 0 0 1000000000 0 0 1
120 0 0 1000000000 0 0 1
121 0 0 1000000000 0 1 0
122 0 0 1000000000 0 0 1
123 0 0 1000000000 0 0 1
124 0 0 1000000000 0 0 1
125 0 0 1000000000 0 1 0
126 0 0 1000000000 0 0 1
127 0 0 1000000000 0 0 1
128 0 0 1000000000 0 0 1
129 0 0 1000000000 0 1 0
130 0 0 1000000000 0 0 1
131 0 0 1000000000 0 0 1
132 0 0 1000000000 0 0 1
133 0 0 1000000000 0 1 0
134 0 0 1000000000 0 0 1
135 0 0 1000000000 0 0 1
136 0 0 1000000000 0 0 1
137 0 0 1000000000 0 1 0
138 0 0 1000000000 0 0 1
139 0 0 1000000000 0 0 1
140 0 0 1000000000 0 0 1
141 0 0 1000000000 0 1 0
142 0 0 1000000000 0 0 1
143 0 0 1000000000 0 0 1
144 0 0 1000000000 0 0 1
145 0 0 1000000000 0 1 0
146 0 0 1000000000 0 0 1
147 0 0 1000000000 0 0 1
148 0 0 1000000000 0 0 1
149 0 0 1000000000 0 1 0
150 0 0 1000000000 0 0 1
151 0 0 1000000000 0 0 1
152 0 0 1000000000 0 0 1
153 0 0 1000000000 0 1 0
154 0 0 1000000000 0 0 1
155 0 0 1000000000 0 0 1
156 0 0 1000000000 0 0 1
157 0 0 1000000000 0 1 0
158 0 0 1000000000 0 0 1
159 0 0 1000000000 0 0 1
160 0 0 1000000000 0 0 1
161 0 0 1000000000 0 1 0
162 0 0 1000000000 0 0 1
163 0 0 1000000000 0 0 1
164 0 0 1000000000 0 0 1
165 0 0 1000000000 0 1 0
166 0 0 1000000000 0 0 1
167 0 0 1000000000 0 0 1
168 0 0 1000000000 0 0 1
169 0 0 1000000000 0 1 0
170 0 0 1000000000 0 0 1
171 0 0 1000000000 0 0 1
172 0 0 1000000000 0 0 1
173 0 0 1000000000 0 1 0
174 0 0 1000000000 0 0 1
175 0 0 1000000000 0 0 1
176 0 0 1000000000 0 0 1
177 0 0 1000000000 0 1 0
178 0 0 1000000000 0 0 1
179 0 0 1000000000 0 0 1
180 0 0 1000000000 0 0 1
181 0 0 1000000000 0 1 0
182 0 0 1000000000 0 0 1
183 0 0 1000000000 0 0 1
184 0 0 1000000000 0 0 1
185 0 0 1000000000 0 1 0
186 0 0 1000000000 0 0 1
187 0 0 1000000000 0 0 1
188 0 0 1000000000 0 0 1
189 0 0 1000000000 0 1 0
190 0 0 1000000000 0 0 1
191 0 0 1000000000 0 0 1
192 0 0 1000000000 0 0 1
193 0 0 1000000000 0 1 0
194 0 0 1000000000 0 0 1
195 0 0 1000000000 0 0 1
196 0 0 1000000000 0 0 1
197 0 0 1000000000 0 1 0
198 0 0 1000000000 0 0 1
199 0 0 1000000000 0 0 1
200 0 0 1000000000 0 0 1
201 0 0 1000000000 0 1 0
202 0 0 1000000000 0 0 1
203 0 0 1000000000 0 0 1
204 0 0 1000000000 0 0 1
205 0 0 1000000000 0 1 0
206 0 0 1000000000 0 0 1
207 0 0 1000000000 0 0 1
208 0 0 1000000000 0 0 1
209 0 0 1000000000 0 1 0
210 0 0 1000000000 0 0 1
211 0 0 1000000000 0 0 1
212 0 0 1000000000 0 0 1
213 0 0 1000000000 0 1 0
214 0 0 1000000000 0 0 1
215 0 0 1000000000 0 0 1
216 0 0 1000000000 0 0 1
217 0 0 1000000000 0 1 0
218 0 0 1000000000 0 0 1
219 0 0 1000000000 0 0 1
220 0 0 1000000000 0 0 1
221 0 0 1000000000 0 1 0
222 0 0 1000000000 0 0 1
223 0 0 1000000000 0 0 1
224 0 0 1000000000 0 0 1
225 0 0 1000000000 0 1 0
226 0 0 1000000000 0 0 1
227 0 0 1000000000 0 0 1
228 0 0 1000000000 0 0 1
229 0 0 1000000000 0 1 0
230 0 0 1000000000 0 0 1
231 0 0 1000000000 0 0 1
232 0 0 1000000000 0 0 1
233 0 0 1000000000 0 1 0
234 0 0 1000000000 0 0 1
235 0 0 1000000000 0 0 1
236 0 0 1000000000 0 0 1
237 0 0 1000000000 0 1 0
238 0 0 1000000000 0 0 1
239 0 0 1000000000 0 0 1
240 0 0 1000000000 0 0 1
241 0 0 1000000000 0 1 0
242 0 0 1000000000 0 0 1
243 0 0 1000000000 0 0 1
244 0 0 1000000000 0 0 1
245 0 0 1000000000 0 1 0
246 0 0 1000000000 0 0 1
247 0 0 1000000000 0 0 1
248 0 0 1000000000 0 0 1
249 0 0 1000000000 0 1 0
250 0 0 1000000000 0 0 1
251 0 0 1000000000 0 0 1
252 0 0 1000000000 0 0 1
253 0 0 1000000000 0 1 0
254 0 0 1000000000 0 0 1
255 0 0 1000000000 0 0 1
256 0 0 1000000000 0 0 1
257 0 0 1000000000 0 1 0
258 0 0 1000000000 0 0 1
259 0 0 1000000000 0 0 1
260 0 0 1000000000 0 0 1
261 0 0 1000000000 0 1 0
262 0 0 1000000000 0 0 1
263 0 0 1000000000 0 0 1
264 0 0 1000000000 0 0 1
265 0 0 1000000000 0 1 0
266 0 0 1000000000 0 0 1
267 0 0 1000000000 0 0 1
268 0 0 1000000000 0 0 1
269 0 0 1000000000 0 1 0
270 0 0 1000000000 0 0 1
271 0 0 1000000000 0 0 1
272 0 0 1000000000 0 0 1
273 0 0 1000000000 0 1 0
274 0 0 1000000000 0 0 1
275 0 0 1000000000 0 0 1
276 0 0 1000000000 0 0 1
277 0 0 1000000000 0 1 0
278 0 0 1000000000 0 0 1
279 0 0 1000000000 0 0 1
280 0 0 1000000000 0 0 1
281 0 0 1000000000 0 1 0
282 0 0 1000000000 0 0 1
283 0 0 1000000000 0 0 1
284 0 0 1000000000 0 0 1
285 0 0 1000000000 0 1 0
286 0 0 1000000000 0 0 1
287 0 0 1000000000 0 0 1
288 0 0 1000000000 0 0 1
289 0 0 1000000000 0 1 0
290 0 0 1000000000 0 0 1
291 0 0 1000000000 0 0 1
292 0 0 1000000000 0 0 1
293 0 0 1000000000 0 1 0
294 0 0 1000000000 0 0 1
295 0 0 1000000000 0 0 1
296 0 0 1000000000 0 0 1
297 0 0 1000000000 0 1 0
298 0 0 1000000000 0 0 1
299 0 0 1000000000 0 0 1
300 0 0 1000000000 0 0 1
301 0 0 1000000000 0 1 0
302 0 0 1000000000 0 0 1
303 0 0 1000000000 0 0 1
304 0 0 1000000000 0 0 1
305 0 0 1000000000 0 1 0
306 0 0 1000000000 0 0 1
307 0 0 1000000000 0 0 1
308 0 0 1000000000 0 0 1
309 0 0 1000000000 0 1 0
310 0 0 1000000000 0 0 1
311 0 0 1000000000 0 0 1
312 0 0 1000000000 0 0 1
313 0 0 1000000000 0 1 0
314 0 0 1000000000 0 0 1
315 0 0 1000000000 0 0 1
316 0 0 1000000000 0 0 1
317 0 0 1000000000 0 1 0
318 0 0 1000000000 0 0 1
319 0 0 1000000000 0 0 1
320 0 0 1000000000 0 0 1
321 0 0 1000000000 0 1 0
322 0 0 1000000000 0 0 1
323 0 0 1000000000 0 0 1
324 0 0 1000000000 0 0 1
325 0 0 1000000000 0 1 0
326 0 0 1000000000 0 0 1
327 0 0 1000000000 0 0 1
328 0 0 1000000000 0 0 1
329 0 0 1000000000 0 1 0
330 0 0 1000000000 0 0 1
331 0 0 1000000000 0 0 1
332 0 0 1000000000 0 0 1
333 0 0 1000000000 0 1 0
334 0 0 1000000000 0 0 1
335 0 0 1000000000 0 0 1
336 0 0 1000000000 0 0 1
337 0 0 1000000000 0 1 0
338 0 0 1000000000 0 0 1
339 0 0 1000000000 0 0 1
340 0 0 1000000000 0 0 1
341 0 0 1000000000 0 1 0
342 0 0 1000000000 0 0 1
343 0 0 1000000000 0 0 1
344 0 0 1000000000 0 0 1
345 0 0 1000000000 0 1 0
346 0 0 1000000000 0 0 1
347 0 0 1000000000 0 0 1
348 0 0 1000000000 0 0 1
349 0 0 1000000000 0 1 0
350 0 0 1000000000 0 0 1
351 0 0 1000000000 0 0 1
352 0 0 1000000000 0 0 1
353 0 0 1000000000 0 1 0
354 0 0 1000000000 0 0 1
355 0 0 1000000000 0 0 1
356 0 0 1000000000 0 0 1
357 0 0 1000000000 0 1 0
358 0 0 1000000000 0 0 1
359 0 0 1000000000 0 0 1
360 0 0 1000000000 0 0 1
361 0 0 1000000000 0 1 0
362 0 0 1000000000 0 0 1
363 0 0 1000000000 0 0 1
364 0 0 1000000000 0 0 1
365 0 0 1000000000 0 1 0
366 0 0 1000000000 0 0 1
367 0 0 1000000000 0 0 1
368 0 0 1000000000 0 0 1
369 0 0 1000000000 0 1 0
370 0 0 1000000000 0 0 1
371 0 0 1000000000 0 0 1
372 0 0 1000000000 0 0 1
373 0 0 1000000000 0 1 0
374 0 0 1000000000 0 0 1
375 0 0 1000000000 0 0 1
376 0 0 1000000000 0 0 1
377 0 0 1000000000 0 1 0
378 0 0 1000000000 0 0 1
379 0 0 1000000000 0 0 1
380 0 0 1000000000 0 0 1
381 0 0 1000000000 0 1 0
382 0 0 1000000000 0 0 1
383 0 0 1000000000 0 0 1
384 0 0 1000000000 0 0 1
385 0 0 1000000000 0 1 0
386 0 0 1000000000 0 0 1
387 0 0 1000000000 0 0 1
388 0 0 1000000000 0 0 1
389 0 0 1000000000 0 1 0
390 0 0 1000000000 0 0 1
391 0 0 1000000000 0 0 1
392 0 0 1000000000 0 0 1
393 0 0 1000000000 0 1 0
394 0 0 1000000000 0 0 1
395 0 0 1000000000 0 0 1
396 0 0 1000000000 0 0 1
397 0 0 1000000000 0 1 0
398 0 0 1000000000 0 0 1
399 0 0 1000000000 0 0 1
400 0 0 1000000000 0 0 1
401 0 0 1000000000 0 1 0
402 0 0 1000000000 0 0 1
403 0 0 1000000000 0 0 1
404 0 0 1000000000 0 0 1
405 0 0 1000000000 0 1 0
406 0 0 1000000000 0 0 1
407 0 0 1000000000 0 0 1
408 0 0 1000000000 0 0 1
409 0 0 1000000000 0 1 0
410 0 0 1000000000 0 0 1
411 0 0 1000000000 0 0 1
412 0 0 1000000000 0 0 1
413 0 0 1000000000 0 1 0
414 0 0 1000000000 0 0 1
415 0 0 1000000000 0 0 1
416 0 0 1000000000 0 0 1
417 0 0 1000000000 0 1 0
418 0 0 1000000000 0 0 1
419 0 0 1000000000 0 0 1
420 0 0 1000000000 0 0 1
421 0 0 1000000000 0 1 0
422 0 0 1000000000 0 0 1
423 0 0 1000000000 0 0 1
424 0 0 1000000000 0 0 1
425 0 0 1000000000 0 1 0
426 0 0 1000000000 0 0 1
427 0 0 1000000000 0 0 1
428 0 0 1000000000 0 0 1
429 0 0 1000000000 0 1 0
430 0 0 1000000000 0 0 1
431 0 0 1000000000 0 0 1
432 0 0 1000000000 0 0 1
433 0 0 1000000000 0 1 0
434 0 0 1000000000 0 0 1
435 0 0 1000000000 0 0 1
436 0 0 1000000000 0 0 1
437 0 0 1000000000 0 1 0
438 0 0 1000000000 0 0 1
439 0 0 1000000000 0 0 1
440 0 0 1000000000 0 0 1
441 0 0 1000000000 0 1 0
442 0 0 1000000000 0 0 1
443 0 0 1000000000 0 0 1
444 0 0 1000000000 0 0 1
445 0 0 1000000000 0 1 0
446 0 0 1000000000 0 0 1
447 0 0 1000000000 0 0 1
448 0 0 1000000000 0 0 1
449 0 0 1000000000 0 1 0
450 0 0 1000000000 0 0 1
451 0 0 1000000000 0 0 1
452 0 0 1000000000 0 0 1
453 0 0 1000000000 0 1 0
454 0 0 1000000000 0 0 1
455 0 0 1000000000 0 0 1
456 0 0 1000000000 0 0 1
457 0 0 1000000000 0 1 0
458 0 0 1000000000 0 0 1
459 0 0 1000000000 0 0 1
460 0 0 1000000000 0 0 1
461 0 0 1000000000 0 1 0
462 0 0 1000000000 0 0 1
463 0 0 1000000000 0 0 1
464 0 0 1000000000 0 0 1
465 0 0 1000000000 0 1 0
466 0 0 1000000000 0 0 1
467 0 0 1000000000 0 0 1
468 0 0 1000000000 0 0 1
469 0 0 1000000000 0 1 0
470 0 0 1000000000 0 0 1
471 0 0 1000000000 0 0 1
472 0 0 1000000000 0 0 1
473 0 0 1000000000 0 1 0
474 0 0 1000000000 0 0 1
475 0 0 1000000000 0 0 1
476 0 0 1000000000 0 0 1
477 0 0 1000000000 0 1 0
478 0 0 1000000000 0 0 1
479 0 0 1000000000 0 0 1
480 0 0 1000000000 0 0 1
481 0 0 1000000000 0 1 0
482 0 0 1000000000 0 0 1
483 0 0 1000000000 0 0 1
484 0 0 1000000000 0 0 1
485 0 0 1000000000 0 1 0
486 0 0 1000000000 0 0 1
487 0 0 1000000000 0 0 1
488 0 0 1000000000 0 0 1
489 0 0 1000000000 0 1 0
490 0 0 1000000000 0 0 1
491 0 0 1000000000 0 0 1
492 0 0 1000000000 0 0 1
493 0 0 1000000000 0 1 0
494 0 0 1000000000 0 0 1
495 0 0 1000000000 0 0 1
496 0 0 1000000000 0 0 1
497 0 0 1000000000 0 1 0
498 0 0 1000000000 0 0 1
499 0 0 1000000000 0 0 1
500 0 0 1000000000 0 0 1
501 0 0 1000000000 0 1 0
502 0 0 1000000000 0 0 1
503 0 0 1000000000 0 0 1
504 0 0 1000000000 0 0 1
505 0 0 1000000000 0 1 0
506 0 0 1000000000 0 0 1
507 0 0 1000000000 0 0 1
508 0 0 1000000000 0 0 1
509 0 0 1000000000 0 1 0
510 0 0 1000000000 0 0 1
511 0 0 1000000000 0 0 1
512 0 0 1000000000 0 0 1
513 0 0 1000000000 0 1 0
514 0 0 1000000000 0 0 1
515 0 0 1000000000 0 0 1
516 0 0 1000000000 0 0 1
517 0 0 1000000000 0 1 0
518 0 0 1000000000 0 0 1
519 0 0 1000000000 0 0 1
520 0 0 1000000000 0 0 1
521 0 0 1000000000 0 1 0
522 0 0 1000000000 0 0 1
523 0 0 1000000000 0 0 1
524 0 0 1000000000 0 0 1
525 0 0 1000000000 0 1 0
526 0 0 1000000000 0 0 1
527 0 0 1000000000 0 0 1
528 0 0 1000000000 0 0 1
529 0 0 1000000000 0 1 0
530 0 0 1000000000 0 0 1
531 0 0 1000000000 0 0 1
532 0 0 1000000000 0 0 1
533 0 0 1000000000 0 1 0
534 0 0 1000000000 0 0 1
535 0 0 1000000000 0 0 1
536 0 0 1000000000 0 0 1
537 0 0 1000000000 0 1 0
538 0 0 1000000000 0 0 1
539 0 0 1000000000 0 0 1
540 0 0 1000000000 0 0 1
541 0 0 1000000000 0 1 0
542 0 0 1000000000 0 0 1
543 0 0 1000000000 0 0 1
544 0 0 1000000000 0 0 1
545 0 0 1000000000 0 1 0
546 0 0 1000000000 0 0 1
547 0 0 1000000000 0 0 1
548 0 0 1000000000 0 0 1
